words_hard_train/1703.qaiger
aag 96 16 0 1 80
2
4
8
12
16
20
24
28
36
38
42
46
50
54
62
66
192
6 2 4
10 6 8
14 10 12
18 14 16
22 18 20
26 22 24
30 27 28
32 26 29
34 31 33
40 37 39
44 40 42
48 46 42
52 50 42
56 53 55
58 57 42
60 49 59
64 60 63
68 64 67
70 44 68
72 35 70
74 34 71
76 73 75
78 17 66
80 16 67
82 79 81
84 82 15
86 83 14
88 85 87
90 65 42
92 88 91
94 89 90
96 93 95
98 19 21
100 99 23
102 100 36
104 102 69
106 103 68
108 107 42
110 105 108
112 101 37
114 110 113
116 25 38
118 24 39
120 117 119
122 120 23
124 121 22
126 123 125
128 115 126
130 96 129
132 52 54
134 133 57
136 3 5
138 137 7
140 134 138
142 135 139
144 141 143
146 61 62
148 147 65
150 11 13
152 151 15
154 149 152
156 145 155
158 9 47
160 8 46
162 159 161
164 162 7
166 163 6
168 165 167
170 169 58
172 168 59
174 171 173
176 148 153
178 175 177
180 156 178
182 113 103
184 183 109
186 127 185
188 180 187
190 130 188
192 77 191
i0 1 x2[0]
i1 1 x2[1]
i2 1 x2[2]
i3 1 x2[3]
i4 1 x2[4]
i5 1 x2[5]
i6 1 x2[6]
i7 1 x2[7]
i8 2 y2[5]
i9 2 y2[6]
i10 2 y2[7]
i11 2 y2[2]
i12 2 y2[0]
i13 2 y2[1]
i14 2 y2[3]
i15 2 y2[4]
o0 bv[0]
c
simplified
  <
    1
    xor
      abs
        2 y2
      add
        1
        1 x2
