words_hard_train/1703.qaiger.qdimacs
p cnf 96 241
a 1 2 4 6 8 10 12 14 0
e 3 5 7 9 11 13 15 16 17 18 19 20 21 22 23 24 25 26 27 28 29 30 31 32 33 34 35 36 37 38 39 40 41 42 43 44 45 46 47 48 49 50 51 52 53 54 55 56 57 58 59 60 61 62 63 64 65 66 67 68 69 70 71 72 73 74 75 76 77 78 79 80 81 82 83 84 85 86 87 88 89 90 91 92 93 94 95 96 0
-1 -2 3 0
1 -3 0
2 -3 0
-3 -4 5 0
3 -5 0
4 -5 0
-5 -6 7 0
5 -7 0
6 -7 0
-7 -8 9 0
7 -9 0
8 -9 0
-9 -10 11 0
9 -11 0
10 -11 0
-11 -12 13 0
11 -13 0
12 -13 0
13 -14 15 0
-13 -15 0
14 -15 0
-13 14 16 0
13 -16 0
-14 -16 0
15 16 17 0
-15 -17 0
-16 -17 0
18 19 20 0
-18 -20 0
-19 -20 0
-20 -21 22 0
20 -22 0
21 -22 0
-23 -21 24 0
23 -24 0
21 -24 0
-25 -21 26 0
25 -26 0
21 -26 0
26 27 28 0
-26 -28 0
-27 -28 0
28 -21 29 0
-28 -29 0
21 -29 0
24 29 30 0
-24 -30 0
-29 -30 0
-30 31 32 0
30 -32 0
-31 -32 0
-32 33 34 0
32 -34 0
-33 -34 0
-22 -34 35 0
22 -35 0
34 -35 0
17 -35 36 0
-17 -36 0
35 -36 0
-17 35 37 0
17 -37 0
-35 -37 0
36 37 38 0
-36 -38 0
-37 -38 0
8 -33 39 0
-8 -39 0
33 -39 0
-8 33 40 0
8 -40 0
-33 -40 0
39 40 41 0
-39 -41 0
-40 -41 0
-41 7 42 0
41 -42 0
-7 -42 0
41 -7 43 0
-41 -43 0
7 -43 0
42 43 44 0
-42 -44 0
-43 -44 0
32 -21 45 0
-32 -45 0
21 -45 0
-44 45 46 0
44 -46 0
-45 -46 0
44 -45 47 0
-44 -47 0
45 -47 0
46 47 48 0
-46 -48 0
-47 -48 0
9 10 49 0
-9 -49 0
-10 -49 0
49 11 50 0
-49 -50 0
-11 -50 0
-50 -18 51 0
50 -51 0
18 -51 0
-51 34 52 0
51 -52 0
-34 -52 0
51 -34 53 0
-51 -53 0
34 -53 0
53 -21 54 0
-53 -54 0
21 -54 0
52 -54 55 0
-52 -55 0
54 -55 0
50 18 56 0
-50 -56 0
-18 -56 0
-55 56 57 0
55 -57 0
-56 -57 0
12 -19 58 0
-12 -58 0
19 -58 0
-12 19 59 0
12 -59 0
-19 -59 0
58 59 60 0
-58 -60 0
-59 -60 0
-60 11 61 0
60 -61 0
-11 -61 0
60 -11 62 0
-60 -62 0
11 -62 0
61 62 63 0
-61 -63 0
-62 -63 0
57 -63 64 0
-57 -64 0
63 -64 0
-48 64 65 0
48 -65 0
-64 -65 0
-26 -27 66 0
26 -66 0
27 -66 0
66 28 67 0
-66 -67 0
-28 -67 0
1 2 68 0
-1 -68 0
-2 -68 0
68 3 69 0
-68 -69 0
-3 -69 0
-67 -69 70 0
67 -70 0
69 -70 0
67 69 71 0
-67 -71 0
-69 -71 0
70 71 72 0
-70 -72 0
-71 -72 0
30 -31 73 0
-30 -73 0
31 -73 0
73 32 74 0
-73 -74 0
-32 -74 0
5 6 75 0
-5 -75 0
-6 -75 0
75 7 76 0
-75 -76 0
-7 -76 0
74 -76 77 0
-74 -77 0
76 -77 0
72 77 78 0
-72 -78 0
-77 -78 0
4 23 79 0
-4 -79 0
-23 -79 0
-4 -23 80 0
4 -80 0
23 -80 0
79 80 81 0
-79 -81 0
-80 -81 0
-81 3 82 0
81 -82 0
-3 -82 0
81 -3 83 0
-81 -83 0
3 -83 0
82 83 84 0
-82 -84 0
-83 -84 0
84 -29 85 0
-84 -85 0
29 -85 0
-84 29 86 0
84 -86 0
-29 -86 0
85 86 87 0
-85 -87 0
-86 -87 0
-74 76 88 0
74 -88 0
-76 -88 0
87 88 89 0
-87 -89 0
-88 -89 0
-78 -89 90 0
78 -90 0
89 -90 0
56 51 91 0
-56 -91 0
-51 -91 0
91 54 92 0
-91 -92 0
-54 -92 0
63 92 93 0
-63 -93 0
-92 -93 0
-90 93 94 0
90 -94 0
-93 -94 0
-65 -94 95 0
65 -95 0
94 -95 0
38 95 96 0
-38 -96 0
-95 -96 0
96 0
